
Gurobi 9.1.2 (win64, Java) logging started Fri Nov  5 12:05:49 2021

Academic license - for non-commercial use only - expires 2022-10-30
Gurobi Optimizer version 9.1.2 build v9.1.2rc0 (win64)
Thread count: 6 physical cores, 12 logical processors, using up to 12 threads
Optimize a model with 50 rows, 400 columns and 800 nonzeros
Model fingerprint: 0x764470ba
Variable types: 0 continuous, 400 integer (400 binary)
Coefficient statistics:
  Matrix range     [1e+00, 1e+03]
  Objective range  [6e+01, 1e+03]
  Bounds range     [1e+00, 1e+00]
  RHS range        [1e+00, 2e+03]
Found heuristic solution: objective 14695.000000
Presolve removed 0 rows and 146 columns
Presolve time: 0.00s
Presolved: 50 rows, 254 columns, 508 nonzeros
Variable types: 0 continuous, 254 integer (254 binary)
Presolved: 50 rows, 254 columns, 508 nonzeros


Root relaxation: objective 1.658194e+04, 175 iterations, 0.00 seconds

    Nodes    |    Current Node    |     Objective Bounds      |     Work
 Expl Unexpl |  Obj  Depth IntInf | Incumbent    BestBd   Gap | It/Node Time

     0     0 16581.9410    0   11 14695.0000 16581.9410  12.8%     -    0s
H    0     0                    15877.000000 16581.9410  4.44%     -    0s
     0     0 16576.7987    0   26 15877.0000 16576.7987  4.41%     -    0s
H    0     0                    15912.000020 16576.7987  4.18%     -    0s
     0     0 16576.7987    0   28 15912.0000 16576.7987  4.18%     -    0s
H    0     0                    16008.000000 16576.7987  3.55%     -    0s
H    0     0                    16078.000000 16576.7987  3.10%     -    0s
H    0     0                    16160.000000 16576.7987  2.58%     -    0s
     0     0 16520.9485    0   35 16160.0000 16520.9485  2.23%     -    0s
     0     0 16520.6433    0   29 16160.0000 16520.6433  2.23%     -    0s
     0     0 16519.5796    0   27 16160.0000 16519.5796  2.23%     -    0s
     0     0 16518.4774    0   32 16160.0000 16518.4774  2.22%     -    0s
     0     0 16518.2122    0   37 16160.0000 16518.2122  2.22%     -    0s
H    0     0                    16336.000000 16518.2122  1.12%     -    0s
     0     0 16507.8234    0   27 16336.0000 16507.8234  1.05%     -    0s
     0     0 16507.8234    0   27 16336.0000 16507.8234  1.05%     -    0s
     0     0 16507.7494    0   35 16336.0000 16507.7494  1.05%     -    0s
     0     0 16507.7494    0   21 16336.0000 16507.7494  1.05%     -    0s
     0     0 16507.7494    0   13 16336.0000 16507.7494  1.05%     -    0s
     0     0 16497.8731    0   26 16336.0000 16497.8731  0.99%     -    0s
     0     0 16492.2995    0   27 16336.0000 16492.2995  0.96%     -    0s
     0     0 16492.0976    0   23 16336.0000 16492.0976  0.96%     -    0s
     0     0 16489.3334    0   23 16336.0000 16489.3334  0.94%     -    0s
     0     0 16489.3334    0   25 16336.0000 16489.3334  0.94%     -    0s
     0     0 16488.9894    0   29 16336.0000 16488.9894  0.94%     -    0s
     0     0 16488.9894    0   27 16336.0000 16488.9894  0.94%     -    0s
     0     2 16488.9894    0   25 16336.0000 16488.9894  0.94%     -    0s
H 2028  1362                    16444.000000 16484.0249  0.24%   7.1    0s

Cutting planes:
  Gomory: 9
  Cover: 55
  Clique: 1
  MIR: 31
  StrongCG: 20
  Flow cover: 2
  Zero half: 1

Explored 21075 nodes (349540 simplex iterations) in 3.50 seconds
Thread count was 12 (of 12 available processors)

Solution count 8: 16444 16336 16160 ... 14695

Optimal solution found (tolerance 1.00e-04)
Best objective 1.644400000000e+04, best bound 1.644400000000e+04, gap 0.0000%
